
Gurobi 11.0.3 (linux64) logging started Mon 18 Nov 2024 08:28:51 PM CST

Set parameter LogFile to value "/home/dlcole3/graph_abstraction/hierarchical_graphs/git_storage/CS1/HP_low_reserves/gurobi_logs/serial/logfile_ST8_6.log"

Gurobi 11.0.3 (linux64) logging started Mon 18 Nov 2024 08:30:43 PM CST

Set parameter LogFile to value "/home/dlcole3/graph_abstraction/hierarchical_graphs/git_storage/CS1/HP_low_reserves/gurobi_logs/serial/logfile_ST8_6.log"
Gurobi Optimizer version 11.0.3 build v11.0.3rc0 (linux64 - "Ubuntu 18.04.3 LTS")

CPU model: Intel(R) Xeon(R) CPU E5-2698 v4 @ 2.20GHz, instruction set [SSE2|AVX|AVX2]
Thread count: 40 physical cores, 80 logical processors, using up to 20 threads

Optimize a model with 29168 rows, 50688 columns and 136175 nonzeros
Model fingerprint: 0xc47e0783
Variable types: 46944 continuous, 3744 integer (3744 binary)
Coefficient statistics:
  Matrix range     [6e-01, 2e+04]
  Objective range  [2e+00, 2e+04]
  Bounds range     [5e-02, 2e+05]
  RHS range        [5e-02, 7e+03]
Presolve removed 14141 rows and 38758 columns
Presolve time: 0.36s
Presolved: 15027 rows, 11930 columns, 64037 nonzeros
Variable types: 8897 continuous, 3033 integer (3033 binary)
Found heuristic solution: objective 194688.96737

Root relaxation: objective 6.331066e+04, 7692 iterations, 0.32 seconds (0.22 work units)

    Nodes    |    Current Node    |     Objective Bounds      |     Work
 Expl Unexpl |  Obj  Depth IntInf | Incumbent    BestBd   Gap | It/Node Time

     0     0 63310.6588    0   10 194688.967 63310.6588  67.5%     -    1s
H    0     0                    194684.56627 63310.6588  67.5%     -    1s
H    0     0                    81509.589301 63310.6588  22.3%     -    1s
H    0     0                    81509.588924 63310.6588  22.3%     -    1s
     0     0 63310.6588    0   10 81509.5889 63310.6588  22.3%     -    1s
     0     2 63310.6588    0   10 81509.5889 63310.6588  22.3%     -    2s
H   31    52                    74826.661933 63436.3391  15.2%  19.8    2s
H   32    52                    64865.920674 63436.3391  2.20%  21.0    2s
H   40    52                    63943.384458 63446.4195  0.78%  17.9    2s
H  139     6                    63785.083632 63454.0260  0.52%   8.5    2s
H  148     4                    63757.581040 63454.0260  0.48%   8.2    2s
H  171    24                    63635.134514 63454.0260  0.28%   7.3    2s

Explored 195 nodes (9000 simplex iterations) in 2.88 seconds (1.87 work units)
Thread count was 20 (of 80 available processors)

Solution count 10: 63635.1 63635.1 63757.6 ... 194689

Optimal solution found (tolerance 3.00e-03)
Best objective 6.363513450988e+04, best bound 6.345402598014e+04, gap 0.2846%

User-callback calls 1879, time in user-callback 0.00 sec
